results_rootrelaxation/bin018_060_003.srr.sol
solution status: optimal solution found
objective value:                                    0
_var2712_                           0.123101444643245 	(obj:0)
_var2741_                          0.0206290094603245 	(obj:0)
_var2748_                          0.0827029427225753 	(obj:0)
_var2760_                           0.280885387079123 	(obj:0)
_var2795_                           0.122965782628124 	(obj:0)
_var2804_                           0.105851722916029 	(obj:0)
_var2812_                          0.0591324981213912 	(obj:0)
_var2817_                           0.301421924826957 	(obj:0)
_var2822_                            0.32354308537191 	(obj:0)
_var2824_                           0.133219921935825 	(obj:0)
_var2825_                           0.093962060707868 	(obj:0)
_var2826_                           0.226328264225237 	(obj:0)
_var2827_                           0.339166094237544 	(obj:0)
_var2828_                           0.111559320172337 	(obj:0)
_var2830_                           0.204005525327357 	(obj:0)
_var2831_                          0.0896561137494325 	(obj:0)
_var2838_                           0.103320105207083 	(obj:0)
_var2857_                            0.21753538657348 	(obj:0)
_var2858_                           0.219060409369973 	(obj:0)
_var2861_                           0.138089761502991 	(obj:0)
_var2869_                           0.105836566517438 	(obj:0)
_var2871_                           0.118596089485163 	(obj:0)
_var2873_                          0.0388278099329967 	(obj:0)
_var2875_                           0.341680031200818 	(obj:0)
_var2881_                           0.197762959727175 	(obj:0)
_var2891_                           0.025155210645527 	(obj:0)
_var2900_                           0.218306384886285 	(obj:0)
_var2907_                          0.0403816017760674 	(obj:0)
_var2908_                          0.0940938499070201 	(obj:0)
_var2910_                           0.126299514707239 	(obj:0)
_var2911_                           0.205711299362703 	(obj:0)
_var2920_                           0.250271437858047 	(obj:0)
_var2922_                           0.168523780152348 	(obj:0)
_var2923_                          0.0876437533610362 	(obj:0)
_var2927_                           0.284340519002527 	(obj:0)
_var2929_                           0.405581730683904 	(obj:0)
_var2936_                         0.00990289527243901 	(obj:0)
_var2948_                           0.432840983355902 	(obj:0)
_var2949_                           0.069397916501484 	(obj:0)
_var2950_                          0.0268998777518124 	(obj:0)
_var2955_                          0.0234641702766833 	(obj:0)
_var2957_                          0.0253657773276442 	(obj:0)
_var2959_                           0.149592766235754 	(obj:0)
_var2970_                           0.217619720465866 	(obj:0)
_var2972_                           0.370945572874984 	(obj:0)
_var2974_                          0.0102243012671041 	(obj:0)
_var2975_                           0.175909182513567 	(obj:0)
_var2977_                          0.0107177498158348 	(obj:0)
_var2983_                          0.0833684353301669 	(obj:0)
_var2984_                           0.261389919211034 	(obj:0)
_var2985_                           0.347831287440035 	(obj:0)
_var2986_                          0.0482764797360778 	(obj:0)
_var2987_                          0.0426994864484983 	(obj:0)
_var2989_                           0.113258528929528 	(obj:0)
_var2991_                          0.0322044918014904 	(obj:0)
_var2992_                          0.0553350065322392 	(obj:0)
_var2993_                           0.139502973354093 	(obj:0)
_var2995_                          0.0672821034878682 	(obj:0)
_var2996_                           0.215208242067203 	(obj:0)
_var2999_                         0.00176621937806496 	(obj:0)
_var3003_                           0.416844847844868 	(obj:0)
_var3005_                            0.19659494803062 	(obj:0)
_var3008_                           0.169535955076903 	(obj:0)
_var3009_                          0.0888640642734145 	(obj:0)
_var3018_                            0.13744628666668 	(obj:0)
_var3021_                          0.0106626367315317 	(obj:0)
_var3024_                           0.175676504052284 	(obj:0)
_var3025_                          0.0421858682589725 	(obj:0)
_var3026_                           0.033215895481382 	(obj:0)
_var3027_                           0.211575374597913 	(obj:0)
_var3029_                          0.0024890834588852 	(obj:0)
_var3032_                          0.0578125739509057 	(obj:0)
_var3034_                          0.0866367857058744 	(obj:0)
_var3038_                          0.0366085416346788 	(obj:0)
_var3039_                            0.22142626022287 	(obj:0)
_var3040_                          0.0946685577364035 	(obj:0)
_var3041_                          0.0581916299291948 	(obj:0)
_var3042_                           0.198481779642564 	(obj:0)
_var3045_                          0.0590447991970485 	(obj:0)
_var3047_                           0.084593695792103 	(obj:0)
_var3049_                          0.0681760653209292 	(obj:0)
_var3051_                           0.145836745274557 	(obj:0)
_var3053_                           0.164002923465806 	(obj:0)
_var3055_                           0.162416550991814 	(obj:0)
_var3057_                          0.0275547240260938 	(obj:0)
_var3058_                           0.211219686640975 	(obj:0)
_var3063_                            0.05765657117376 	(obj:0)
_var3066_                           0.157497430055003 	(obj:0)
_var3067_                           0.141280046805456 	(obj:0)
_var3068_                          0.0118130468321015 	(obj:0)
_var3069_                           0.100247725459189 	(obj:0)
_var3071_                           0.201546942548616 	(obj:0)
_var3072_                           0.151032542286311 	(obj:0)
_var3073_                          0.0950566412535922 	(obj:0)
_var3074_                           0.152176305631171 	(obj:0)
_var3076_                           0.123597021549907 	(obj:0)
_var3080_                           0.202817115286767 	(obj:0)
_var3081_                           0.068111275131895 	(obj:0)
_var3083_                           0.040475806475313 	(obj:0)
_var3084_                          0.0619153847303123 	(obj:0)
_var3086_                          0.0534476415109226 	(obj:0)
_var3088_                           0.155924904580309 	(obj:0)
_var3090_                           0.105533932700719 	(obj:0)
_var3091_                          0.0938194159919193 	(obj:0)
_var3092_                          0.0900719355242687 	(obj:0)
_var3093_                          0.0724588098983175 	(obj:0)
_var3094_                           0.175949320208226 	(obj:0)
_var3095_                          0.0877723039808907 	(obj:0)
_var3096_                           0.125107441790985 	(obj:0)
_var3097_                          0.0764974591583984 	(obj:0)
_var3099_                           0.117162413575561 	(obj:0)
_var3101_                           0.026411118545488 	(obj:0)
_var3102_                           0.119054014059337 	(obj:0)
_var3103_                           0.072107495201734 	(obj:0)
_var3105_                          0.0411441231053972 	(obj:0)
_var3106_                            0.01293233408117 	(obj:0)
_var3111_                          0.0275053146498645 	(obj:0)
_var3113_                          0.0837549091878023 	(obj:0)
_var3114_                          0.0886555730166871 	(obj:0)
_var3115_                           0.115101846229519 	(obj:0)
_var3117_                          0.0226284666617354 	(obj:0)
_var3120_                            0.13570349580595 	(obj:0)
_var3121_                           0.107786292470991 	(obj:0)
_var3123_                          0.0409890441237685 	(obj:0)
_var3125_                          0.0475249275708194 	(obj:0)
_var3127_                          0.0291304136929482 	(obj:0)
_var3128_                           0.040468719260327 	(obj:0)
_var3129_                          0.0185454650404655 	(obj:0)
_var3134_                           0.181819328592443 	(obj:0)
_var3135_                           0.144833537965769 	(obj:0)
_var3136_                          0.0754638443529317 	(obj:0)
_var3138_                           0.115275970273374 	(obj:0)
_var3139_                          0.0361341381682267 	(obj:0)
_var3141_                          0.0146519009343311 	(obj:0)
_var3142_                          0.0297680710230119 	(obj:0)
_var3143_                           0.177720374215767 	(obj:0)
_var3146_                          0.0562266696648566 	(obj:0)
_var3147_                          0.0196259289613085 	(obj:0)
_var3149_                           0.064316367731016 	(obj:0)
_var3151_                          0.0735073707307977 	(obj:0)
_var3152_                         0.00885442846949264 	(obj:0)
_var3153_                         0.00666072688902281 	(obj:0)
_var3155_                           0.040166388958855 	(obj:0)
_var3156_                          0.0174256212939297 	(obj:0)
_var3158_                          0.0106283124823816 	(obj:0)
_var3159_                          0.0427013571796732 	(obj:0)
_var3164_                         0.00778880854040595 	(obj:0)
_var3168_                         0.00563825096141389 	(obj:0)
_var3172_                         0.00663075250465317 	(obj:0)
_var3174_                          0.0137143231369663 	(obj:0)
_var3176_                         0.00411836875971277 	(obj:0)
